89
27
0 27 31 33 34 35 38 39 41 42 43 44 46 48 50 51 52 53 55 57 58 59 60 61 64 66 68 69 70 71 75 81 82 83 84 88
1 27 29 30 31 33 34 35 38 39 41 42 43 44 48 49 50 51 52 53 55 57 62 64 66 68 69 72 73 74 75 79 81 82 83 85 88
2 29 30 33 36 37 38 39 43 44 46 47 51 53 54 57 58 59 60 66 67 69 70 79 81 82 83 84 85 88
3 27 29 31 32 33 35 39 42 43 44 46 47 48 49 50 51 52 55 56 57 59 60 61 65 66 68 69 70 75 77 79 80 81 83 84 88
4 29 33 35 39 43 44 47 49 50 51 53 54 55 57 59 60 62 69 71 72 74 75 79 81 83 84 85 87
5 27 29 30 31 33 34 36 47 48 49 50 51 53 55 57 58 59 60 61 65 66 69 73 75 76 79 80 81 83 84 85 88
6 27 29 30 32 33 35 37 38 39 42 43 44 46 47 48 49 50 51 53 55 56 57 60 61 62 66 69 71 72 74 76 77 79 80 81 83 84 85 87 88
7 31 34 35 38 39 41 42 43 48 50 51 52 57 58 60 65 66 68 69 70 72 76 78 81 83 84 85 86 88
8 27 29 33 34 35 38 41 43 44 46 48 49 50 51 53 60 62 64 67 69 70 72 73 77 79 83 85
9 30 31 33 37 38 39 42 43 44 46 49 50 51 52 53 55 56 57 59 60 62 68 69 70 73 75 77 80 82 83 84 85
10 29 33 34 35 36 37 44 45 47 48 52 53 54 55 57 58 59 60 65 66 68 69 70 72 73 74 75 77 81 82 83 84 88
11 29 31 33 35 38 39 41 42 44 47 48 49 51 53 54 55 58 59 60 62 64 66 68 72 81 85 88
12 27 29 33 35 37 38 40 41 42 43 44 45 47 48 49 50 54 57 61 66 69 71 74 75 79 82 83 85 88
13 30 31 33 34 36 37 38 41 46 47 49 51 52 58 59 61 66 67 69 73 77 79 83 84 85 86
14 28 31 37 38 42 48 53 55 58 59 64 66 68 71 72 79 81 82
15 27 32 33 35 38 43 49 50 57 58 61 62 66 68 69 70 75 76 79 81 82 84 87
16 27 30 34 35 37 38 39 44 46 48 49 50 51 52 53 54 55 57 59 62 66 71 76 77 81 85 88
17 30 31 33 39 47 52 55 56 57 61 63 64 65 68 69 74 75
18 27 41 44 49 50 52 65 67 68 70 81 82
19 34 35 39 40 48 51 60 61 64 77 78 82
20 31 33 35 37 40 42 45 46 72 74 79 84
21 34 43 47 68 71 72 73 75 80
22 34 36 44 52 58 61 66 76 81 82 83
23 38 50 55 67 80 88
24 27 42 46 53 63 69 70 72 76 80 85
25 40 84
26 60 77 87
